(set-logic HORN)
(set-info :source |
  Benchmark: test_safe_2019/termination/indirectIntro.4.ml
  Generated by MoCHi
|)
(set-info :status unknown)
(declare-fun |fail_21757[34:0]| ( Int) Bool)
(declare-fun |f[8:5][16:0][22:4]| ( Bool  Int  Int  Int  Int  Bool  Int  Int  Int  Int) Bool)
(declare-fun |f[8:4]| ( Bool  Int  Int  Int  Int) Bool)
(assert (not (exists ((x0 Int)) (|fail_21757[34:0]| x0))))
(assert (forall ((x0 Int)(var10 Int)(x4 Int)(x6 Int)(x17 Bool)(x18 Int)(x19 Int)(x20 Int)(x5 Int)(x7 Int)) (=> (and (|f[8:4]| x17 x18 x19 x20 var10) (and (|f[8:5][16:0][22:4]| x17 x18 x19 x20 var10 true x5 x4 x6 x7) (and (>= var10 1) (and (or (<= (+ 4 (+ x4 (* 3 x6))) (* 3 var10)) (or (<= (+ 1 x6) (+ x4 var10)) (<= var10 5))) (or (<= (+ 3 (+ x4 (* 3 x6))) (* 3 var10)) (<= (+ 5 (* 3 var10)) 0)))))) (|fail_21757[34:0]| x0))))
(assert (forall ((x6 Bool)(x7 Int)(x8 Int)(x9 Int)(x10 Int)(x1 Bool)(x2 Int)(x3 Int)(x4 Int)(x5 Int)) (=> (and (|f[8:4]| x6 x7 x8 x9 x10) (and (= x7 0) (and (= x8 0) (and (= x9 0) (and (= x2 x7) (and (= x3 x8) (and (= x4 x9) (and (not x6) (not x1))))))))) (|f[8:5][16:0][22:4]| x6 x7 x8 x9 x10 x1 x2 x3 x4 x5))))
(assert (forall ((x3 Bool)(x1 Int)(x0 Int)(x2 Int)(x5 Int)) (=> (and (= x1 0) (and (= x0 0) (and (= x2 0) (not x3)))) (|f[8:4]| x3 x1 x0 x2 x5))))
(check-sat)
(get-model)
(exit)
